NAME: dataset9.tsp
TYPE: TSP
COMMENT: 9 random locations
DIMENSION: 9
EDGE_WEIGHT_TYPE: EUC_2D
NODE_COORD_SECTION
1 4947.7865579436 1471.3646888137
2 2480.6728990131 984.9799580682
3 4234.8096820756 4116.6994845846
4 71.4164259540 2129.4358254318
5 1225.7946712415 3958.2465308715
6 3008.4648777931 1177.1663891802
7 2146.6409412413 4930.5266627767
8 3700.4841699323 2626.3366428056
9 594.6853907188 4940.9400441614
EOF
